NAME diffusion_srl_ilp
* Max problem is converted into Min one
ROWS
 N  OBJ
 L  constraint1_4572
 L  constraint1_4573
 L  constraint1_4571
 L  constraint1_4570
 L  constraint2_1870
 L  constraint2_1871
 L  constraint2_1872
 L  constraint2_1873
 L  constraint2_4390
 L  constraint2_4391
 L  constraint2_4392
 L  constraint2_4393
 L  constraint2_4570
 L  constraint2_4571
 L  constraint2_4572
 L  constraint2_4573
 L  constraint2_5670
 L  constraint2_5671
 L  constraint2_5672
 L  constraint2_5673
COLUMNS
    MARKER    'MARKER'                 'INTORG'
    Z_457_2_0  OBJ       -1.3466890941849583e-02
    Z_457_2_0  constraint1_4572  1
    Z_457_2_0  constraint2_4570  1
    Z_457_2_1  OBJ       -2.0574325292564954e-01
    Z_457_2_1  constraint1_4572  1
    Z_457_2_1  constraint2_4571  1
    Z_457_2_2  OBJ       -4.6601235722703825e-02
    Z_457_2_2  constraint1_4572  1
    Z_457_2_2  constraint2_4572  1
    Z_457_2_3  OBJ       -1.2821071929717184e-01
    Z_457_2_3  constraint1_4572  1
    Z_457_2_3  constraint2_4573  1
    Z_457_2_4  OBJ       -5.0597790111262519e-01
    Z_457_2_4  constraint1_4572  1
    Z_457_3_0  OBJ       -3.4900149567235819e-02
    Z_457_3_0  constraint1_4573  1
    Z_457_3_0  constraint2_4570  1
    Z_457_3_1  OBJ       -1.8161311827503676e-02
    Z_457_3_1  constraint1_4573  1
    Z_457_3_1  constraint2_4571  1
    Z_457_3_2  OBJ       -2.3118784040524868e-02
    Z_457_3_2  constraint1_4573  1
    Z_457_3_2  constraint2_4572  1
    Z_457_3_3  OBJ       -6.3936264437976925e-02
    Z_457_3_3  constraint1_4573  1
    Z_457_3_3  constraint2_4573  1
    Z_457_3_4  OBJ       -7.5988349012675882e-01
    Z_457_3_4  constraint1_4573  1
    Z_457_1_0  OBJ       -1.9610132118955161e-04
    Z_457_1_0  constraint1_4571  1
    Z_457_1_0  constraint2_4570  1
    Z_457_1_1  OBJ       -1.3101757952134628e-03
    Z_457_1_1  constraint1_4571  1
    Z_457_1_1  constraint2_4571  1
    Z_457_1_2  OBJ       -7.5829149921593142e-01
    Z_457_1_2  constraint1_4571  1
    Z_457_1_2  constraint2_4572  1
    Z_457_1_3  OBJ       -2.7059822953851365e-03
    Z_457_1_3  constraint1_4571  1
    Z_457_1_3  constraint2_4573  1
    Z_457_1_4  OBJ       -1.3749624137228045e-01
    Z_457_1_4  constraint1_4571  1
    Z_457_0_0  OBJ       -1.9610132118955161e-04
    Z_457_0_0  constraint1_4570  1
    Z_457_0_0  constraint2_4570  1
    Z_457_0_1  OBJ       -1.3101757952134628e-03
    Z_457_0_1  constraint1_4570  1
    Z_457_0_1  constraint2_4571  1
    Z_457_0_2  OBJ       -7.5829149921593142e-01
    Z_457_0_2  constraint1_4570  1
    Z_457_0_2  constraint2_4572  1
    Z_457_0_3  OBJ       -2.7059822953851365e-03
    Z_457_0_3  constraint1_4570  1
    Z_457_0_3  constraint2_4573  1
    Z_457_0_4  OBJ       -1.3749624137228045e-01
    Z_457_0_4  constraint1_4570  1
    MARKER    'MARKER'                 'INTEND'
RHS
    RHS1      constraint1_4572  1
    RHS1      constraint1_4573  1
    RHS1      constraint1_4571  1
    RHS1      constraint1_4570  1
    RHS1      constraint2_1870  1
    RHS1      constraint2_1871  1
    RHS1      constraint2_1872  1
    RHS1      constraint2_1873  1
    RHS1      constraint2_4390  1
    RHS1      constraint2_4391  1
    RHS1      constraint2_4392  1
    RHS1      constraint2_4393  1
    RHS1      constraint2_4570  1
    RHS1      constraint2_4571  1
    RHS1      constraint2_4572  1
    RHS1      constraint2_4573  1
    RHS1      constraint2_5670  1
    RHS1      constraint2_5671  1
    RHS1      constraint2_5672  1
    RHS1      constraint2_5673  1
BOUNDS
 UP BND1      Z_457_2_0  1
 UP BND1      Z_457_2_1  1
 UP BND1      Z_457_2_2  1
 UP BND1      Z_457_2_3  1
 UP BND1      Z_457_2_4  1
 UP BND1      Z_457_3_0  1
 UP BND1      Z_457_3_1  1
 UP BND1      Z_457_3_2  1
 UP BND1      Z_457_3_3  1
 UP BND1      Z_457_3_4  1
 UP BND1      Z_457_1_0  1
 UP BND1      Z_457_1_1  1
 UP BND1      Z_457_1_2  1
 UP BND1      Z_457_1_3  1
 UP BND1      Z_457_1_4  1
 UP BND1      Z_457_0_0  1
 UP BND1      Z_457_0_1  1
 UP BND1      Z_457_0_2  1
 UP BND1      Z_457_0_3  1
 UP BND1      Z_457_0_4  1
ENDATA
